words_hard_train/1843.qaiger
aag 128 24 0 1 104
2
4
12
20
22
28
32
36
40
44
54
62
78
94
110
126
142
164
176
188
198
208
218
246
256
6 3 4
8 2 5
10 7 9
14 10 13
16 11 12
18 15 17
24 21 22
26 25 22
30 26 28
34 30 32
38 34 36
42 38 40
46 42 44
48 18 47
50 19 46
52 49 51
56 54 20
58 20 23
60 59 25
64 61 63
66 60 62
68 65 67
70 56 68
72 71 67
74 27 29
76 75 31
80 76 79
82 77 78
84 81 83
86 73 84
88 87 83
90 31 33
92 91 35
96 92 95
98 93 94
100 97 99
102 89 100
104 103 99
106 35 37
108 107 39
112 108 111
114 109 110
116 113 115
118 105 116
120 119 115
122 39 41
124 123 43
128 124 127
130 125 126
132 129 131
134 121 132
136 135 131
138 43 45
140 139 47
144 140 143
146 141 142
148 145 147
150 137 148
152 151 147
154 53 152
156 52 153
158 155 157
160 120 133
162 161 135
166 163 164
168 162 165
170 167 169
172 57 69
174 173 71
178 175 177
180 174 176
182 179 181
184 88 101
186 185 103
190 187 188
192 183 191
194 72 85
196 195 87
200 196 199
202 192 201
204 104 117
206 205 119
210 207 208
212 202 211
214 55 21
216 215 57
220 217 218
222 216 219
224 221 223
226 197 198
228 186 189
230 227 229
232 224 230
234 212 232
236 206 209
238 234 237
240 170 238
242 136 149
244 243 151
248 244 246
250 245 247
252 249 251
254 240 253
256 159 254
i0 2 y2[7]
i1 2 y1[7]
i2 1 x2[7]
i3 1 x2[0]
i4 1 x2[1]
i5 1 x2[2]
i6 1 x2[3]
i7 1 x2[4]
i8 1 x2[5]
i9 1 x2[6]
i10 2 y1[0]
i11 2 y1[1]
i12 2 y1[2]
i13 2 y1[3]
i14 2 y1[4]
i15 2 y1[5]
i16 2 y1[6]
i17 2 y2[5]
i18 2 y2[1]
i19 2 y2[3]
i20 2 y2[2]
i21 2 y2[4]
i22 2 y2[0]
i23 2 y2[6]
o0 bool[0]
c
simplified
  ==
    add
      2 y1
      subtract
        invert
          1 x2
        1
    2 y2
