words_hard_train/1843.qaiger.qdimacs
p cnf 128 313
a 6 10 11 14 16 18 20 22 0
e 1 2 3 4 5 7 8 9 12 13 15 17 19 21 23 24 25 26 27 28 29 30 31 32 33 34 35 36 37 38 39 40 41 42 43 44 45 46 47 48 49 50 51 52 53 54 55 56 57 58 59 60 61 62 63 64 65 66 67 68 69 70 71 72 73 74 75 76 77 78 79 80 81 82 83 84 85 86 87 88 89 90 91 92 93 94 95 96 97 98 99 100 101 102 103 104 105 106 107 108 109 110 111 112 113 114 115 116 117 118 119 120 121 122 123 124 125 126 127 128 0
1 -2 3 0
-1 -3 0
2 -3 0
-1 2 4 0
1 -4 0
-2 -4 0
3 4 5 0
-3 -5 0
-4 -5 0
-5 6 7 0
5 -7 0
-6 -7 0
5 -6 8 0
-5 -8 0
6 -8 0
7 8 9 0
-7 -9 0
-8 -9 0
10 -11 12 0
-10 -12 0
11 -12 0
12 -11 13 0
-12 -13 0
11 -13 0
-13 -14 15 0
13 -15 0
14 -15 0
-15 -16 17 0
15 -17 0
16 -17 0
-17 -18 19 0
17 -19 0
18 -19 0
-19 -20 21 0
19 -21 0
20 -21 0
-21 -22 23 0
21 -23 0
22 -23 0
-9 23 24 0
9 -24 0
-23 -24 0
9 -23 25 0
-9 -25 0
23 -25 0
24 25 26 0
-24 -26 0
-25 -26 0
-27 -10 28 0
27 -28 0
10 -28 0
-10 11 29 0
10 -29 0
-11 -29 0
29 12 30 0
-29 -30 0
-12 -30 0
30 31 32 0
-30 -32 0
-31 -32 0
-30 -31 33 0
30 -33 0
31 -33 0
32 33 34 0
-32 -34 0
-33 -34 0
-28 -34 35 0
28 -35 0
34 -35 0
35 33 36 0
-35 -36 0
-33 -36 0
13 14 37 0
-13 -37 0
-14 -37 0
37 15 38 0
-37 -38 0
-15 -38 0
-38 39 40 0
38 -40 0
-39 -40 0
38 -39 41 0
-38 -41 0
39 -41 0
40 41 42 0
-40 -42 0
-41 -42 0
36 -42 43 0
-36 -43 0
42 -43 0
43 41 44 0
-43 -44 0
-41 -44 0
15 16 45 0
-15 -45 0
-16 -45 0
45 17 46 0
-45 -46 0
-17 -46 0
-46 47 48 0
46 -48 0
-47 -48 0
46 -47 49 0
-46 -49 0
47 -49 0
48 49 50 0
-48 -50 0
-49 -50 0
44 -50 51 0
-44 -51 0
50 -51 0
51 49 52 0
-51 -52 0
-49 -52 0
17 18 53 0
-17 -53 0
-18 -53 0
53 19 54 0
-53 -54 0
-19 -54 0
-54 55 56 0
54 -56 0
-55 -56 0
54 -55 57 0
-54 -57 0
55 -57 0
56 57 58 0
-56 -58 0
-57 -58 0
52 -58 59 0
-52 -59 0
58 -59 0
59 57 60 0
-59 -60 0
-57 -60 0
19 20 61 0
-19 -61 0
-20 -61 0
61 21 62 0
-61 -62 0
-21 -62 0
-62 63 64 0
62 -64 0
-63 -64 0
62 -63 65 0
-62 -65 0
63 -65 0
64 65 66 0
-64 -66 0
-65 -66 0
60 -66 67 0
-60 -67 0
66 -67 0
67 65 68 0
-67 -68 0
-65 -68 0
21 22 69 0
-21 -69 0
-22 -69 0
69 23 70 0
-69 -70 0
-23 -70 0
-70 71 72 0
70 -72 0
-71 -72 0
70 -71 73 0
-70 -73 0
71 -73 0
72 73 74 0
-72 -74 0
-73 -74 0
68 -74 75 0
-68 -75 0
74 -75 0
75 73 76 0
-75 -76 0
-73 -76 0
26 -76 77 0
-26 -77 0
76 -77 0
-26 76 78 0
26 -78 0
-76 -78 0
77 78 79 0
-77 -79 0
-78 -79 0
-60 66 80 0
60 -80 0
-66 -80 0
80 67 81 0
-80 -81 0
-67 -81 0
81 -82 83 0
-81 -83 0
82 -83 0
-81 82 84 0
81 -84 0
-82 -84 0
83 84 85 0
-83 -85 0
-84 -85 0
28 34 86 0
-28 -86 0
-34 -86 0
86 35 87 0
-86 -87 0
-35 -87 0
87 88 89 0
-87 -89 0
-88 -89 0
-87 -88 90 0
87 -90 0
88 -90 0
89 90 91 0
-89 -91 0
-90 -91 0
-44 50 92 0
44 -92 0
-50 -92 0
92 51 93 0
-92 -93 0
-51 -93 0
93 -94 95 0
-93 -95 0
94 -95 0
91 95 96 0
-91 -96 0
-95 -96 0
-36 42 97 0
36 -97 0
-42 -97 0
97 43 98 0
-97 -98 0
-43 -98 0
-98 99 100 0
98 -100 0
-99 -100 0
-96 100 101 0
96 -101 0
-100 -101 0
-52 58 102 0
52 -102 0
-58 -102 0
102 59 103 0
-102 -103 0
-59 -103 0
103 -104 105 0
-103 -105 0
104 -105 0
-101 105 106 0
101 -106 0
-105 -106 0
27 10 107 0
-27 -107 0
-10 -107 0
107 28 108 0
-107 -108 0
-28 -108 0
108 -109 110 0
-108 -110 0
109 -110 0
-108 109 111 0
108 -111 0
-109 -111 0
110 111 112 0
-110 -112 0
-111 -112 0
98 -99 113 0
-98 -113 0
99 -113 0
-93 94 114 0
93 -114 0
-94 -114 0
113 114 115 0
-113 -115 0
-114 -115 0
-112 -115 116 0
112 -116 0
115 -116 0
-106 -116 117 0
106 -117 0
116 -117 0
-103 104 118 0
103 -118 0
-104 -118 0
-117 118 119 0
117 -119 0
-118 -119 0
-85 -119 120 0
85 -120 0
119 -120 0
-68 74 121 0
68 -121 0
-74 -121 0
121 75 122 0
-121 -122 0
-75 -122 0
-122 -123 124 0
122 -124 0
123 -124 0
122 123 125 0
-122 -125 0
-123 -125 0
124 125 126 0
-124 -126 0
-125 -126 0
-120 126 127 0
120 -127 0
-126 -127 0
79 -127 128 0
-79 -128 0
127 -128 0
128 0
